c --- [ banner ] -------------------------------------------------------------
c 
c CaDiCaL SAT Solver
c Copyright (c) 2016-2025
c A. Biere, M. Fleury, N. Froleyks, K. Fazekas, F. Pollitt, T. Faller
c JKU Linz, University of Freiburg, TU Wien
c 
c Version 3.0.0 7b99c07f0bcab5824a5a3ce62c7066554017f641
c Apple clang version 21.0.0 (clang-2100.0.123.102) -Wall -Wextra -O3 -DNDEBUG -DNCLOSEFROM
c Thu Apr 23 22:35:47 PDT 2026 Darwin dada-mun-26.local 25.4.0 arm64
c 
c --- [ limit ] --------------------------------------------------------------
c 
c setting time limit to 180 seconds real time (due to '-t 180')
c 
c --- [ proof tracing ] ------------------------------------------------------
c 
c opening file to write 'scratch/atail-force/uniform-cycle-coverage-audit/n11_a1_cycle1.drat'
c writing binary proof trace to 'scratch/atail-force/uniform-cycle-coverage-audit/n11_a1_cycle1.drat'
c 
c --- [ parsing input ] ------------------------------------------------------
c 
c reading DIMACS file from 'scratch/atail-force/uniform-cycle-coverage-audit/n11_a1_cycle1.cnf'
c opening file to read 'scratch/atail-force/uniform-cycle-coverage-audit/n11_a1_cycle1.cnf'
c found 'p cnf 242 165185' header
c parsed 165185 clauses in 0.05 seconds process time
c 
c --- [ options ] ------------------------------------------------------------
c 
c all options are set to their default value
c 
c --- [ solving ] ------------------------------------------------------------
c 
c time measured in process time since initialization
c 
c  seconds  reduction conflicts       size tier2       variables
c         MB    restarts   redundant    glue  trail        remaining
c          level     rate       size/glu tier1  irredundant
c 
c *  0.05  0  0 0   0  0    0    0 0.0 0 0 2 6  0% 165143 200 83%
c (  0.05  0  0 0   0  0    0    0 0.0 0 0 2 6  0% 165143 200 83%
c .  0.05  0  0 0   0  0    0    0 0.0 0 0 2 6  0% 165143 200 83%
c f  0.07  0  0 0   0  0    0    0 0.0 0 0 2 6  0% 162902 364 150%
c e  0.07  0  0 0   0  0    0    0 0.0 0 0 2 6  0% 162608 224 93%
c P  0.08  0  0 0   0  0    0    0 0.0 0 0 2 6  0% 162608 224 93%
c )  0.08  0  0 0   0  0    0    0 0.0 0 0 2 6  0% 162608 224 93%
c {  0.08  0  0 0   0  0    0    0 0.0 0 0 2 6  0% 162608 224 93%
c -  0.09  0 90 1   5  2  303  102 1.2 17 13 2 6 60% 162608 224 93%
c -  0.10  0 46 2   9  1  833  225 1.3 17 13 2 6 49% 162608 224 93%
c }  0.11  0 42 2   9  1 1001  370 1.3 17 13 2 6 48% 162608 224 93%
c [  0.11  0  0 2   9  0 1001  370 0.0 0 0 2 6  0% 162608 224 93%
c O  0.11  0 17 2   9 18 1002  371 1.3 18 14 2 6 37% 162608 224 93%
c -  0.12  0 23 3   9  1 1706  373 1.3 18 15 2 6 44% 162608 224 93%
c ]  0.13  0 22 3  10  1 2717 1103 1.3 18 15 2 6 44% 162608 224 93%
c {  0.13  0 42 3  10  1 2717 1103 1.3 17 13 2 6 48% 162608 224 93%
c -  0.15  0 38 4  17  1 2960  515 1.3 17 13 2 6 57% 162608 224 93%
c O  0.15  0 38 4  17  1 3003  553 1.3 17 13 2 6 57% 162608 224 93%
c -  0.18  0 30 5  30  1 4607  774 1.3 18 13 2 6 61% 162608 224 93%
c #  0.20  0 28 5  34  1 6004 1929 1.4 17 13 9 16 60% 162608 224 93%
c 
c  seconds  reduction conflicts       size   tier2        variables
c         MB    restarts   redundant     glue    trail        remaining
c          level     rate       size/glue  tier1   irredundant
c 
c }  0.21  0 28 5  34  1 6365 2237 1.4 17 12 9 15 60% 162608 224 93%
c [  0.21  0 22 5  34  1 6365 2237 1.3 18 15 2 6 79% 162608 224 93%
c -  0.22  0 22 6  34  1 6662 2315 1.3 19 14 2 6 77% 162608 224 93%
c -  0.30  0 24 7  36  1 9132 3468 1.3 20 15 11 19 73% 162608 224 93%
c ]  0.31  0 24 7  36  1 9646 3843 1.3 21 16 11 19 73% 162608 224 93%
c {  0.31  0 28 7  36  1 9646 3843 1.4 17 12 9 15 60% 162608 224 93%
c B  0.32  0 27 7  55  1 10008 4154 1.4 17 12 9 15 60% 162608 224 93%
c -  0.37  0 27 8 104  1 12029 4668 1.4 17 13 9 15 61% 162608 224 93%
c f  0.42  0 27 8 156  1 13313 5792 1.4 18 13 9 15 58% 162586 240 99%
c W  0.49  0 27 8 193  1 15010 7280 1.4 18 13 9 15 59% 162586 240 99%
c -  0.50  0 27 9 200  1 15351 6276 1.4 18 13 9 15 59% 162586 240 99%
c }  0.53  0 26 9 215  1 16122 6957 1.4 18 13 9 15 60% 162586 240 99%
c [  0.53  0 24 9 215  1 16122 6957 1.3 21 16 11 19 68% 162586 240 99%
c -  0.61  0 25 10 217  1 19102 7307 1.3 21 16 11 19 68% 162586 240 99%
c s  0.63  0 25 10 217  1 19380 7544 1.3 21 16 11 19 68% 160564 240 99%
c e  0.64  0 25 10 217  1 19380 7544 1.3 21 16 11 19 68% 160563 230 95%
c s  0.64  0 25 10 217  1 19380 7544 1.3 21 16 11 19 68% 159120 230 95%
c I  0.68  0 24 10 218  1 21011 8712 1.3 21 16 11 19 67% 159120 230 95%
c -  0.72  0 27 11 218  1 23286 8427 1.4 21 15 10 18 65% 159120 230 95%
c ]  0.73  0 27 11 218  1 23407 8530 1.4 21 15 10 18 65% 159120 230 95%
c 
c  seconds  reductions  conflicts       size   tier2        variables
c         MB     restarts    redundant     glue    trail        remaining
c          level      rate        size/glue  tier1   irredundant
c 
c {  0.73  0 26 11 218  1 23407 8530 1.4 18 13 9 15 60% 159120 230 95%
c -  0.83  0 26 12 313  1 27870 10680 1.4 18 12 9 15 60% 159120 230 95%
c F  0.84  0 26 12 313  1 28015 10806 1.4 18 12 9 15 60% 159120 230 95%
c -  0.96  0 26 13 422  1 32884 13120 1.4 18 12 9 15 61% 159120 230 95%
c B  1.06  0 25 13 463  1 36016 15829 1.4 18 12 9 15 60% 159120 230 95%
c }  1.08  0 25 13 480  1 36875 16591 1.4 18 12 9 15 60% 159120 230 95%
c [  1.08  0 27 13 480  1 36875 16591 1.4 21 15 10 18 65% 159120 230 95%
c -  1.11  0 26 14 481  1 38331 15215 1.4 20 15 9 18 64% 159120 230 95%
c u  1.13  0 26 14 481  1 38331 15207 1.4 20 15 9 18 64% 159118 230 95%
c v  1.13  0 26 14 481  1 38331 15199 1.4 20 15 9 18 64% 159118 230 95%
c w  1.14  0 26 14 481  1 38331 15194 1.4 20 15 9 18 64% 159118 230 95%
c x  1.14  0 26 14 481  1 38331 15194 1.4 20 15 9 18 64% 159110 230 95%
c -  1.25  0 26 15 486  1 44214 16246 1.4 21 15 9 18 64% 159110 230 95%
c B  1.27  0 26 15 486  1 45019 16909 1.4 21 15 9 18 64% 159110 230 95%
c -  1.39  0 26 16 488  1 50530 16589 1.4 22 16 9 18 64% 159110 230 95%
c ]  1.43  0 26 16 488  1 52583 18196 1.3 22 16 9 18 64% 159110 230 95%
c {  1.43  0 25 16 488  1 52583 18196 1.4 18 12 9 15 60% 159110 230 95%
c W  1.53  0 25 16 521  1 55023 20228 1.5 18 12 9 15 60% 159110 230 95%
c s  1.59  0 25 16 571  1 57119 22077 1.5 18 12 9 15 61% 155300 230 95%
c s  1.61  0 25 16 571  1 57119 22077 1.5 18 12 9 15 61% 152839 230 95%
c 
c  seconds  reductions  conflicts        size   tier2        variables
c         MB     restarts     redundant     glue    trail        remaining
c          level      rate         size/glue  tier1   irredundant
c 
c -  1.63  0 25 17 581  1 57282 18893 1.5 18 12 9 15 61% 152839 230 95%
c -  1.85  0 25 18 786  1 64368 22165 1.5 18 12 9 15 61% 152839 230 95%
c #  1.89  0 25 18 813  1 66024 23622 1.5 18 12 9 15 61% 152839 230 95%
c }  2.03  0 25 18 950  1 71798 28648 1.5 18 12 8 14 61% 152839 230 95%
c [  2.03  0 26 18 950  1 71798 28648 1.3 22 16 9 18 64% 152839 230 95%
c -  2.04  0 26 19 950  1 71878 22752 1.3 22 16 9 18 64% 152839 230 95%
c W  2.18  0 27 19 951  1 78026 28095 1.4 22 16 9 18 65% 152839 230 95%
c -  2.22  0 28 20 952  1 79815 23946 1.4 22 16 9 18 65% 152839 230 95%
c u  2.24  0 28 20 952  1 79815 23940 1.4 22 16 9 18 65% 152839 230 95%
c v  2.24  0 28 20 952  1 79815 23935 1.4 22 16 9 18 65% 152839 230 95%
c x  2.25  0 28 20 952  1 79815 23931 1.4 22 16 9 18 65% 152838 230 95%
c -  2.42  0 27 21 957  1 88178 23837 1.4 22 16 9 18 66% 152838 230 95%
c O  2.48  0 27 21 958  1 91027 26090 1.4 22 16 9 18 67% 152838 230 95%
c ]  2.50  0 27 21 959  1 92269 26998 1.4 22 16 9 18 67% 152838 230 95%
c {  2.50  0 25 21 959  1 92269 26998 1.5 18 12 8 14 61% 152838 230 95%
c -  2.64  0 25 22 1035  1 96969 25393 1.5 18 12 8 14 61% 152838 230 95%
c B  2.82  0 25 22 1127  1 105028 32164 1.5 18 12 8 14 61% 152838 230 95%
c -  2.86  0 25 23 1158  1 106193 30035 1.5 18 12 8 14 61% 152838 230 95%
c s  3.07  0 25 23 1401  1 113377 36355 1.5 18 12 8 14 61% 149899 230 95%
c s  3.09  0 25 23 1401  1 113377 36355 1.5 18 12 8 14 61% 149897 230 95%
c 
c  seconds  reductions   conflicts         size   tier2        variables
c         MB     restarts       redundant     glue    trail        remaining
c          level       rate          size/glue  tier1   irredundant
c 
c -  3.18  0 25 24 1496  2 115841 33893 1.5 18 12 8 14 60% 149897 230 95%
c u  3.20  0 25 24 1496  2 115841 33891 1.5 18 12 8 14 60% 149897 230 95%
c v  3.21  0 25 24 1496  2 115841 33883 1.5 18 12 8 14 60% 149897 230 95%
c w  3.21  0 25 24 1496  2 115841 33877 1.5 18 12 8 14 60% 149897 230 95%
c }  3.27  0 25 24 1583  2 117832 35645 1.5 18 12 8 14 60% 149897 230 95%
c [  3.27  0 27 24 1583  1 117832 35645 1.4 22 16 9 18 67% 149897 230 95%
c B  3.30  0 27 24 1584  1 120031 37518 1.4 22 16 9 18 67% 149897 230 95%
c -  3.41  0 26 25 1588  1 125845 36007 1.4 22 16 9 18 66% 149897 230 95%
c W  3.66  0 25 25 1589  1 136034 44066 1.4 22 16 9 18 65% 149897 230 95%
c -  3.68  0 26 26 1589  1 136272 37051 1.4 22 16 9 17 65% 149897 230 95%
c -  3.90  0 25 27 1590  1 147123 38115 1.4 22 16 9 17 64% 149897 230 95%
c ]  3.95  0 25 27 1590  1 149481 40102 1.4 22 16 9 17 64% 149897 230 95%
c {  3.95  0 25 27 1590  2 149481 40102 1.5 18 12 8 14 60% 149897 230 95%
c W  4.10  0 25 27 1696  2 153035 43286 1.5 18 12 8 14 60% 149897 230 95%
c -  4.30  0 25 28 1957  2 158401 41411 1.5 18 12 8 14 60% 149897 230 95%
c u  4.36  0 25 28 1957  2 158401 41403 1.5 18 12 8 14 60% 149897 230 95%
c v  4.36  0 25 28 1957  2 158401 41396 1.5 18 12 8 14 60% 149897 230 95%
c w  4.37  0 25 28 1957  2 158401 41390 1.5 18 12 8 14 60% 149897 230 95%
c x  4.37  0 25 28 1957  2 158401 41390 1.5 18 12 8 14 60% 149895 230 95%
c -  4.80  0 25 29 2465  2 170099 46023 1.5 18 12 8 14 61% 149895 230 95%
c 
c  seconds  reductions   conflicts         size   tier2        variables
c         MB     restarts       redundant     glue    trail        remaining
c          level       rate          size/glue  tier1   irredundant
c 
c F  4.85  0 25 29 2524  2 171038 46877 1.5 18 12 8 14 61% 149895 230 95%
c }  5.00  0 25 29 2633  2 176450 51652 1.5 18 12 8 14 61% 149895 230 95%
c [  5.00  0 25 29 2633  1 176450 51652 1.4 22 16 9 17 64% 149895 230 95%
c -  5.13  0 25 30 2635  1 182223 49235 1.4 22 16 9 17 64% 149895 230 95%
c s  5.27  0 25 30 2639  1 188162 54281 1.4 22 16 9 17 64% 149886 230 95%
c ^  5.29  0 25 30 2639  1 188162 54281 1.4 22 16 9 17 64% 149886 230 95%
c I  5.34  0 26 30 2640  1 190040 55888 1.4 22 16 9 17 64% 149886 230 95%
c -  5.44  0 26 31 2642  1 194769 51098 1.4 22 16 9 17 64% 149886 230 95%
c u  5.46  0 26 31 2642  1 194769 51092 1.4 22 16 9 17 64% 149886 230 95%
c v  5.47  0 26 31 2642  1 194769 51079 1.4 22 16 9 17 64% 149886 230 95%
c w  5.47  0 26 31 2642  1 194769 51076 1.4 22 16 9 17 64% 149886 230 95%
c -  5.74  0 26 32 2648  1 207743 52052 1.4 22 16 8 17 64% 149886 230 95%
c B  5.79  0 26 32 2648  1 210042 53981 1.4 22 16 8 17 64% 149886 230 95%
c ]  5.90  0 26 32 2649  1 215793 58637 1.4 22 16 8 17 64% 149886 230 95%
c {  5.90  0 25 32 2649  2 215793 58637 1.5 18 12 8 14 61% 149886 230 95%
c -  6.16  0 25 33 2980  2 221144 54356 1.5 18 12 8 14 61% 149886 230 95%
c B  6.49  0 25 33 3376  2 231044 63009 1.5 18 12 8 14 60% 149886 230 95%
c -  6.66  0 25 34 3673  2 234968 60082 1.5 18 12 8 14 60% 149886 230 95%
c u  6.69  0 25 34 3673  2 234968 60079 1.5 18 12 8 14 60% 149886 230 95%
c v  6.69  0 25 34 3673  2 234968 60069 1.5 18 12 8 14 60% 149886 230 95%
c 
c  seconds  reductions   conflicts         size   tier2        variables
c         MB     restarts       redundant     glue    trail        remaining
c          level       rate          size/glue  tier1   irredundant
c 
c w  6.70  0 25 34 3673  2 234968 60065 1.5 18 12 8 14 60% 149886 230 95%
c }  7.14  0 25 34 4255  2 246381 70211 1.5 18 12 8 14 60% 149886 230 95%
c [  7.14  0 26 34 4255  1 246381 70211 1.4 22 16 8 17 64% 149886 230 95%
c -  7.22  0 26 35 4257  1 249216 65560 1.4 22 16 8 17 64% 149886 230 95%
c W  7.52  0 26 35 4260  1 253045 68676 1.4 22 16 8 17 64% 149886 230 95%
c -  7.77  0 27 36 4266  1 263889 67922 1.4 22 16 8 17 65% 149886 230 95%
c O  8.07  0 27 36 4269  1 276048 77822 1.4 23 16 8 17 65% 149886 230 95%
c -  8.17  0 27 37 4269  1 278992 67033 1.4 23 16 8 17 65% 149886 230 95%
c u  8.19  0 27 37 4269  1 278992 67027 1.4 23 16 8 17 65% 149886 230 95%
c v  8.20  0 27 37 4269  1 278992 67013 1.4 23 16 8 17 65% 149886 230 95%
c w  8.20  0 27 37 4269  1 278992 67006 1.4 23 16 8 17 65% 149886 230 95%
c x  8.22  0 27 37 4269  1 278992 67006 1.4 23 16 8 17 65% 149882 230 95%
c s  8.31  0 26 37 4270  1 281644 68949 1.4 23 16 8 17 65% 149866 230 95%
c e  8.33  0 26 37 4270  1 281644 68948 1.4 23 16 8 17 65% 149882 214 88%
c ^  8.34  0 26 37 4270  1 281644 68948 1.4 23 16 8 17 65% 149882 214 88%
c ]  8.48  0 26 37 4270  1 286660 73222 1.4 23 16 8 17 65% 149882 214 88%
c {  8.48  0 25 37 4270  2 286660 73222 1.5 18 12 8 14 60% 149882 214 88%
c -  8.90  0 25 38 4793  2 294517 69848 1.5 18 12 8 14 60% 149882 214 88%
c f  8.91  0 25 38 4793  2 294517 69848 1.5 18 12 8 14 59% 149875 216 89%
c W  9.23  0 25 38 5073  2 300053 74803 1.5 18 12 8 14 59% 149875 216 89%
c 
c  seconds  reductions   conflicts         size   tier2        variables
c         MB     restarts       redundant     glue    trail        remaining
c          level       rate          size/glue  tier1   irredundant
c 
c -  9.73  0 25 39 5591  2 310471 76738 1.5 18 12 8 14 59% 149875 216 89%
c u  9.76  0 25 39 5591  2 310471 76733 1.5 18 12 8 14 59% 149875 216 89%
c v  9.77  0 25 39 5591  2 310471 76716 1.5 18 12 8 14 59% 149875 216 89%
c w  9.78  0 25 39 5591  2 310471 76715 1.5 18 12 8 14 59% 149875 216 89%
c } 10.19  0 25 39 6177  2 317838 83361 1.5 18 12 8 14 58% 149875 216 89%
c [ 10.19  0 26 39 6177  1 317838 83361 1.4 23 16 8 17 65% 149875 216 89%
c B 10.37  0 26 39 6177  1 325054 89672 1.4 23 16 8 17 65% 149875 216 89%
c - 10.45  0 27 40 6177  1 326850 80637 1.4 23 16 8 17 65% 149875 216 89%
c - 10.89  0 26 41 6178  1 343653 80716 1.4 23 16 8 16 64% 149875 216 89%
c u 10.92  0 26 41 6178  1 343653 80710 1.4 23 16 8 16 64% 149875 216 89%
c v 10.93  0 26 41 6178  1 343653 80693 1.4 23 16 8 16 64% 149875 216 89%
c w 10.94  0 26 41 6178  1 343653 80688 1.4 23 16 8 16 64% 149875 216 89%
c W 11.22  0 26 41 6178  1 351055 86510 1.4 23 16 8 16 64% 149875 216 89%
c - 11.47  0 27 42 6179  1 360883 80693 1.4 23 16 8 16 63% 149875 216 89%
c ] 11.51  0 27 42 6180  1 362113 81759 1.4 23 16 8 16 63% 149875 216 89%
c 1 11.51  0 27 42 6180  1 362113 81759 1.4 23 16 8 16 63% 149875 216 89%
c 
c --- [ closing proof ] ------------------------------------------------------
c 
c DRAT proof file 'scratch/atail-force/uniform-cycle-coverage-audit/n11_a1_cycle1.drat' closed
c DRAT 362820 added clauses 55.04%
c DRAT 296329 deleted clauses 44.96%
c DRAT 20559649 bytes (19.61 MB)
c 
c --- [ result ] -------------------------------------------------------------
c 
s SATISFIABLE
v -1 2 -3 4 -5 6 -7 -8 -9 -10 11 -12 -13 14 15 -16 -17 18 -19 -20 21 -22 23 24
v -25 -26 27 -28 -29 -30 31 -32 -33 -34 -35 36 -37 38 39 -40 -41 -42 43 -44
v -45 46 -47 -48 -49 -50 51 52 -53 -54 55 -56 -57 -58 59 60 -61 -62 -63 64 -65
v 66 67 -68 69 -70 71 -72 -73 74 -75 -76 -77 -78 79 -80 -81 82 -83 84 -85 -86
v 87 -88 89 -90 -91 92 -93 -94 -95 96 -97 98 -99 100 -101 -102 -103 -104 105
v -106 -107 108 -109 110 -111 112 113 -114 -115 -116 -117 118 119 -120 -121
v -122 -123 124 -125 -126 -127 -128 -129 -130 -131 -132 -133 -134 135 -136
v -137 -138 -139 -140 -141 -142 -143 -144 -145 -146 -147 -148 -149 150 -151
v -152 -153 -154 -155 -156 -157 -158 -159 160 -161 -162 -163 -164 -165 -166
v -167 -168 169 -170 -171 -172 -173 -174 -175 -176 -177 -178 -179 180 -181
v -182 -183 -184 -185 -186 -187 -188 -189 -190 -191 -192 -193 -194 195 -196
v -197 -198 -199 -200 -201 -202 -203 -204 205 -206 -207 -208 -209 -210 -211
v -212 -213 -214 215 -216 -217 -218 -219 -220 -221 -222 -223 224 -225 -226
v -227 -228 -229 -230 -231 -232 -233 -234 -235 236 -237 -238 -239 -240 -241
v -242 0
c 
c --- [ run-time profiling ] -------------------------------------------------
c 
c process time taken by individual solving procedures
c (percentage relative to process time for solving)
c 
c        10.63   92.66% search
c         5.47   47.72% unstable
c         4.61   40.15% stable
c         0.84    7.32% simplify
c         0.54    4.75% walk
c         0.31    2.73% vivify
c         0.20    1.70% sweep
c         0.08    0.71% subsume
c         0.06    0.53% elim
c         0.05    0.40% parse
c         0.03    0.27% preprocess
c         0.03    0.26% congruence
c         0.03    0.25% probe
c         0.03    0.23% factor
c         0.01    0.07% ternary
c         0.01    0.05% fastelim
c         0.00    0.03% lucky
c         0.00    0.01% backbone
c   =================================
c        11.47   99.60% solve
c 
c last line shows process time for solving
c (percentage relative to total process time)
c 
c --- [ statistics ] ---------------------------------------------------------
c 
c chronological:             37781        10.43 %  of conflicts
c conflicts:                362113     31572.57    per second
c backbone:                  43974     10371.23 %  of vars
c decisions:                505517     44075.94    per second
c eliminated:                  166        39.15 %  of all variables
c factored:                    182        74.90 %  of variables
c fixed:                        42         9.91 %  of all variables
c learned:                  350382        96.76 %  per conflict
c learned_lits:            8325964       100.00 %  learned literals
c minimized:                     0         0.00 %  learned literals
c shrunken:                 740423         8.89 %  learned literals
c minishrunken:             374386         4.50 %  learned literals
c otfs:                       8673         2.40 %  of conflict
c propagations:            5494334         0.48 M  per second
c reduced:                  225003        62.14 %  per conflict
c rephased:                     26     13927.42    interval
c restarts:                   6180        58.59    interval
c stabilizing:                   9        55.66 %  of conflicts
c subsumed:                  56293        10.84 %  of all clauses
c strengthened:               8862         1.71 %  of all clauses
c ticks:                 969132719       178.67    propagation
c vivified:                    183         0.04 %  of all clauses
c walked:                        8     45264.12    interval
c weakened:                    725         4.22    average size
c congruence:                    8     45264.12    interval
c 
c seconds are measured in process time for solving
c 
c --- [ glue usage ] ---------------------------------------------------------
c 
c focused glue 8 used 19702 clauses 5.672% accumulated 62.53% tier1
c focused glue 9 used 19454 clauses 5.600% accumulated 68.13%
c focused glue 10-12 used 48544 clauses 13.97% accumulated 82.11%
c focused glue 13 used 12680 clauses 3.650% accumulated 85.76%
c focused glue 14 used 11036 clauses 3.177% accumulated 88.94% tier2
c 
c stable glue 8 used 43773 clauses 5.930% accumulated 52.89% tier1
c stable glue 9 used 41486 clauses 5.620% accumulated 58.51%
c stable glue 10-14 used 151574 clauses 20.53% accumulated 79.05%
c stable glue 15 used 19925 clauses 2.699% accumulated 81.75%
c stable glue 16 used 18334 clauses 2.483% accumulated 84.23% tier2
c 
c 
c --- [ resources ] ----------------------------------------------------------
c 
c total process time since initialization:        11.52    seconds
c total real time since initialization:           11.53    seconds
c maximum resident set size of process:       515696.00    MB
c 
c --- [ shutting down ] ------------------------------------------------------
c 
c exit 10
